{"problem": {"name": "alarm.erg", "mustbe": "<154.784028"}, "variables": {"Hypovolemia": ["True", "False"], "StrokeVolume": ["Low", "Normal", "High"], "LVFailure": ["True", "False"], "LVEDVolume": ["Low", "Normal", "High"], "PCWP": ["Low", "Normal", "High"], "CVP": ["Low", "Normal", "High"], "History": ["True", "False"], "MinVolSet": ["Low", "Normal", "High"], "VentMach": ["Zero", "Low", "Normal", "High"], "Disconnect": ["True", "False"], "VentTube": ["Zero", "Low", "Normal", "High"], "KinkedTube": ["True", "False"], "Press": ["Zero", "Low", "Normal", "High"], "ErrLowOutput": ["True", "False"], "HRBP": ["Low", "Normal", "High"], "ErrCauter": ["True", "False"], "HREKG": ["Low", "Normal", "High"], "HRSat": ["Low", "Normal", "High"], "BP": ["Low", "Normal", "High"], "CO": ["Low", "Normal", "High"], "HR": ["Low", "Normal", "High"], "TPR": ["Low", "Normal", "High"], "Anaphylaxis": ["True", "False"], "InsuffAnesth": ["True", "False"], "PAP": ["Low", "Normal", "High"], "PulmEmbolus": ["True", "False"], "FiO2": ["Low", "Normal"], "Catechol": ["Normal", "High"], "SaO2": ["Low", "Normal", "High"], "Shunt": ["Normal", "High"], "PVSat": ["Low", "Normal", "High"], "MinVol": ["Zero", "Low", "Normal", "High"], "ExpCO2": ["Zero", "Low", "Normal", "High"], "ArtCO2": ["Low", "Normal", "High"], "VentAlv": ["Zero", "Low", "Normal", "High"], "VentLung": ["Zero", "Low", "Normal", "High"], "Intubation": ["Normal", "Esophageal", "OneSided"]}, "functions": {"P_Hypovolemia": {"scope": ["Hypovolemia"], "costs": ["1.609438", "0.223144"]}, "P_StrokeVolume": {"scope": ["LVFailure", "Hypovolemia", "StrokeVolume"], "costs": ["0.020203", "4.605170", "4.605170", "0.693147", "0.713350", "4.605170", "0.051293", "3.218876", "4.605170", "2.995732", "0.105361", "2.995732"]}, "P_LVFailure": {"scope": ["LVFailure"], "costs": ["2.995732", "0.051293"]}, "P_LVEDVolume": {"scope": ["Hypovolemia", "LVFailure", "LVEDVolume"], "costs": ["0.051293", "3.218876", "4.605170", "0.020203", "4.605170", "4.605170", "4.605170", "2.407946", "0.105361", "2.995732", "0.105361", "2.995732"]}, "P_PCWP": {"scope": ["LVEDVolume", "PCWP"], "costs": ["0.051293", "3.218876", "4.605170", "3.218876", "0.051293", "4.605170", "4.605170", "3.218876", "0.051293"]}, "P_CVP": {"scope": ["LVEDVolume", "CVP"], "costs": ["0.051293", "3.218876", "4.605170", "3.218876", "0.051293", "4.605170", "4.605170", "1.237874", "0.356675"]}, "P_History": {"scope": ["LVFailure", "History"], "costs": ["0.105361", "2.302585", "4.605170", "0.010050"]}, "P_MinVolSet": {"scope": ["MinVolSet"], "costs": ["4.605170", "0.020203", "4.605170"]}, "P_VentMach": {"scope": ["MinVolSet", "VentMach"], "costs": ["4.605170", "0.030459", "4.605170", "4.605170", "4.605170", "4.605170", "0.030459", "4.605170", "4.605170", "4.605170", "4.605170", "0.030459"]}, "P_Disconnect": {"scope": ["Disconnect"], "costs": ["2.995732", "0.051293"]}, "P_VentTube": {"scope": ["VentMach", "Disconnect", "VentTube"], "costs": ["0.030459", "4.605170", "4.605170", "4.605170", "0.030459", "4.605170", "4.605170", "4.605170", "0.030459", "4.605170", "4.605170", "4.605170", "4.605170", "0.030459", "4.605170", "4.605170", "0.030459", "4.605170", "4.605170", "4.605170", "4.605170", "4.605170", "0.030459", "4.605170", "0.030459", "4.605170", "4.605170", "4.605170", "4.605170", "4.605170", "4.605170", "0.030459"]}, "P_KinkedTube": {"scope": ["KinkedTube"], "costs": ["3.218876", "0.040822"]}, "P_Press": {"scope": ["KinkedTube", "Intubation", "VentTube", "Press"], "costs": ["0.030459", "4.605170", "4.605170", "4.605170", "4.605170", "0.713350", "1.203973", "1.609438", "4.605170", "4.605170", "2.525729", "0.105361", "4.605170", "4.605170", "4.605170", "0.030459", "0.030459", "4.605170", "4.605170", "4.605170", "2.302585", "0.174353", "2.995732", "4.605170", "2.995732", "1.386294", "1.386294", "0.798508", "4.605170", "1.897120", "1.386294", "0.527633", "0.030459", "4.605170", "4.605170", "4.605170", "4.605170", "1.237874", "1.203973", "0.916291", "4.605170", "4.605170", "2.525729", "0.105361", "4.605170", "4.605170", "4.605170", "0.030459", "0.030459", "4.605170", "4.605170", "4.605170", "4.605170", "0.030459", "4.605170", "4.605170", "4.605170", "4.605170", "0.030459", "4.605170", "4.605170", "4.605170", "4.605170", "0.030459", "0.030459", "4.605170", "4.605170", "4.605170", "0.916291", "0.544727", "4.605170", "4.605170", "1.609438", "0.287682", "3.218876", "4.605170", "1.609438", "0.356675", "2.407946", "4.605170", "0.030459", "4.605170", "4.605170", "4.605170", "4.605170", "0.105361", "2.525729", "4.605170", "4.605170", "4.605170", "0.967584", "0.510826", "4.605170", "4.605170", "4.605170", "0.030459"]}, "P_ErrLowOutput": {"scope": ["ErrLowOutput"], "costs": ["2.995732", "0.051293"]}, "P_HRBP": {"scope": ["ErrLowOutput", "HR", "HRBP"], "costs": ["0.020203", "4.605170", "4.605170", "0.916291", "0.527633", "4.605170", "1.203973", "0.916291", "1.203973", "0.020203", "4.605170", "4.605170", "4.605170", "0.020203", "4.605170", "4.605170", "4.605170", "0.020203"]}, "P_ErrCauter": {"scope": ["ErrCauter"], "costs": ["2.302585", "0.105361"]}, "P_HREKG": {"scope": ["HR", "ErrCauter", "HREKG"], "costs": ["1.098613", "1.098613", "1.098613", "0.020203", "4.605170", "4.605170", "1.098613", "1.098613", "1.098613", "4.605170", "0.020203", "4.605170", "1.098613", "1.098613", "1.098613", "4.605170", "4.605170", "0.020203"]}, "P_HRSat": {"scope": ["HR", "ErrCauter", "HRSat"], "costs": ["1.098613", "1.098613", "1.098613", "0.020203", "4.605170", "4.605170", "1.098613", "1.098613", "1.098613", "4.605170", "0.020203", "4.605170", "1.098613", "1.098613", "1.098613", "4.605170", "4.605170", "0.020203"]}, "P_BP": {"scope": ["CO", "TPR", "BP"], "costs": ["0.020203", "4.605170", "4.605170", "0.020203", "4.605170", "4.605170", "1.203973", "0.510826", "2.302585", "0.020203", "4.605170", "4.605170", "2.302585", "0.162519", "2.995732", "2.995732", "0.916291", "0.597837", "0.105361", "2.407946", "4.605170", "2.995732", "1.609438", "0.287682", "4.605170", "2.407946", "0.105361"]}, "P_CO": {"scope": ["HR", "StrokeVolume", "CO"], "costs": ["0.020203", "4.605170", "4.605170", "0.051293", "3.218876", "4.605170", "1.203973", "0.371064", "4.605170", "0.051293", "3.218876", "4.605170", "3.218876", "0.051293", "4.605170", "4.605170", "1.203973", "0.371064", "0.223144", "1.660731", "4.605170", "4.605170", "3.218876", "0.051293", "4.605170", "4.605170", "0.020203"]}, "P_HR": {"scope": ["Catechol", "HR"], "costs": ["2.302585", "0.116534", "4.605170", "4.605170", "2.407946", "0.105361"]}, "P_TPR": {"scope": ["Anaphylaxis", "TPR"], "costs": ["0.020203", "4.605170", "4.605170", "1.203973", "0.916291", "1.203973"]}, "P_Anaphylaxis": {"scope": ["Anaphylaxis"], "costs": ["4.605170", "0.010050"]}, "P_InsuffAnesth": {"scope": ["InsuffAnesth"], "costs": ["1.609438", "0.223144"]}, "P_PAP": {"scope": ["PulmEmbolus", "PAP"], "costs": ["4.605170", "1.660731", "0.223144", "2.995732", "0.105361", "2.995732"]}, "P_PulmEmbolus": {"scope": ["PulmEmbolus"], "costs": ["4.605170", "0.010050"]}, "P_FiO2": {"scope": ["FiO2"], "costs": ["4.605170", "0.010050"]}, "P_Catechol": {"scope": ["InsuffAnesth", "SaO2", "TPR", "ArtCO2", "Catechol"], "costs": ["4.605170", "0.010050", "4.605170", "0.010050", "4.605170", "0.010050", "4.605170", "0.010050", "4.605170", "0.010050", "4.605170", "0.010050", "4.605170", "0.010050", "4.605170", "0.010050", "4.605170", "0.010050", "4.605170", "0.010050", "4.605170", "0.010050", "4.605170", "0.010050", "4.605170", "0.010050", "4.605170", "0.010050", "4.605170", "0.010050", "2.995732", "0.051293", "2.995732", "0.051293", "4.605170", "0.010050", "4.605170", "0.010050", "4.605170", "0.010050", "4.605170", "0.010050", "2.995732", "0.051293", "2.995732", "0.051293", "4.605170", "0.010050", "2.995732", "0.051293", "2.995732", "0.051293", "4.605170", "0.010050", "2.995732", "0.051293", "2.995732", "0.051293", "4.605170", "0.010050", "2.995732", "0.051293", "2.995732", "0.051293", "4.605170", "0.010050", "2.995732", "0.051293", "2.995732", "0.051293", "4.605170", "0.010050", "2.302585", "0.105361", "2.302585", "0.105361", "2.302585", "0.105361", "0.051293", "2.995732", "0.051293", "2.995732", "1.203973", "0.356675", "0.051293", "2.995732", "0.051293", "2.995732", "1.203973", "0.356675", "0.051293", "2.995732", "0.051293", "2.995732", "1.203973", "0.356675", "0.010050", "4.605170", "0.010050", "4.605170", "0.010050", "4.605170", "0.051293", "2.995732", "0.010050", "4.605170", "1.203973", "0.356675"]}, "P_SaO2": {"scope": ["Shunt", "PVSat", "SaO2"], "costs": ["0.020203", "4.605170", "4.605170", "4.605170", "0.020203", "4.605170", "4.605170", "4.605170", "0.020203", "0.020203", "4.605170", "4.605170", "0.020203", "4.605170", "4.605170", "0.371064", "1.203973", "4.605170"]}, "P_Shunt": {"scope": ["PulmEmbolus", "Intubation", "Shunt"], "costs": ["2.302585", "0.105361", "2.302585", "0.105361", "4.605170", "0.010050", "0.051293", "2.995732", "0.051293", "2.995732", "2.995732", "0.051293"]}, "P_PVSat": {"scope": ["VentAlv", "FiO2", "PVSat"], "costs": ["0.020203", "4.605170", "4.605170", "0.020203", "4.605170", "4.605170", "0.020203", "4.605170", "4.605170", "0.020203", "4.605170", "4.605170", "0.051293", "3.218876", "4.605170", "4.605170", "0.051293", "3.218876", "0.051293", "3.218876", "4.605170", "4.605170", "4.605170", "0.020203"]}, "P_MinVol": {"scope": ["VentLung", "Intubation", "MinVol"], "costs": ["0.030459", "4.605170", "4.605170", "4.605170", "0.030459", "4.605170", "4.605170", "4.605170", "0.030459", "4.605170", "4.605170", "4.605170", "4.605170", "0.030459", "4.605170", "4.605170", "0.510826", "0.967584", "4.605170", "4.605170", "4.605170", "0.030459", "4.605170", "4.605170", "4.605170", "4.605170", "0.030459", "4.605170", "0.693147", "0.733969", "4.605170", "4.605170", "4.605170", "4.605170", "0.030459", "4.605170", "4.605170", "4.605170", "4.605170", "0.030459", "0.693147", "0.733969", "4.605170", "4.605170", "4.605170", "4.605170", "4.605170", "0.030459"]}, "P_ExpCO2": {"scope": ["ArtCO2", "VentLung", "ExpCO2"], "costs": ["0.030459", "4.605170", "4.605170", "4.605170", "4.605170", "0.030459", "4.605170", "4.605170", "4.605170", "0.030459", "4.605170", "4.605170", "4.605170", "0.030459", "4.605170", "4.605170", "0.030459", "4.605170", "4.605170", "4.605170", "4.605170", "4.605170", "0.030459", "4.605170", "4.605170", "4.605170", "0.030459", "4.605170", "4.605170", "4.605170", "0.030459", "4.605170", "0.030459", "4.605170", "4.605170", "4.605170", "4.605170", "4.605170", "4.605170", "0.030459", "4.605170", "4.605170", "4.605170", "0.030459", "4.605170", "4.605170", "4.605170", "0.030459"]}, "P_ArtCO2": {"scope": ["VentAlv", "ArtCO2"], "costs": ["4.605170", "4.605170", "0.020203", "4.605170", "4.605170", "0.020203", "3.218876", "0.083382", "3.218876", "0.105361", "2.407946", "4.605170"]}, "P_VentAlv": {"scope": ["Intubation", "VentLung", "VentAlv"], "costs": ["0.030459", "4.605170", "4.605170", "4.605170", "4.605170", "0.030459", "4.605170", "4.605170", "4.605170", "4.605170", "0.030459", "4.605170", "4.605170", "4.605170", "4.605170", "0.030459", "0.030459", "4.605170", "4.605170", "4.605170", "4.605170", "0.030459", "4.605170", "4.605170", "4.605170", "4.605170", "0.030459", "4.605170", "4.605170", "4.605170", "4.605170", "0.030459", "0.030459", "4.605170", "4.605170", "4.605170", "3.506558", "0.051293", "4.605170", "4.605170", "4.605170", "0.061875", "3.218876", "4.605170", "4.605170", "0.127833", "2.302585", "4.605170"]}, "P_VentLung": {"scope": ["KinkedTube", "VentTube", "Intubation", "VentLung"], "costs": ["0.030459", "4.605170", "4.605170", "4.605170", "0.030459", "4.605170", "4.605170", "4.605170", "0.030459", "4.605170", "4.605170", "4.605170", "0.051293", "3.506558", "4.605170", "4.605170", "0.030459", "4.605170", "4.605170", "4.605170", "0.051293", "3.506558", "4.605170", "4.605170", "0.916291", "0.544727", "4.605170", "4.605170", "0.030459", "4.605170", "4.605170", "4.605170", "0.693147", "0.733969", "4.605170", "4.605170", "1.203973", "0.385662", "4.605170", "4.605170", "0.030459", "4.605170", "4.605170", "4.605170", "1.203973", "0.385662", "4.605170", "4.605170", "0.030459", "4.605170", "4.605170", "4.605170", "0.030459", "4.605170", "4.605170", "4.605170", "0.030459", "4.605170", "4.605170", "4.605170", "4.605170", "0.030459", "4.605170", "4.605170", "0.030459", "4.605170", "4.605170", "4.605170", "4.605170", "0.030459", "4.605170", "4.605170", "4.605170", "4.605170", "0.030459", "4.605170", "0.030459", "4.605170", "4.605170", "4.605170", "4.605170", "4.605170", "0.030459", "4.605170", "4.605170", "4.605170", "4.605170", "0.030459", "0.030459", "4.605170", "4.605170", "4.605170", "4.605170", "4.605170", "4.605170", "0.030459"]}, "P_Intubation": {"scope": ["Intubation"], "costs": ["0.083382", "3.506558", "2.995732"]}}}
